row=9;
column=9;
Board=[|1,0,1,0,1,0,1,1,0|0,0,1,0,1,0,0,0,1|1,0,0,0,0,0,1,0,0|0,0,0,0,0,0,0,0,0|0,1,0,1,0,0,0,0,0|0,0,0,0,0,0,0,0,1|0,0,0,0,0,0,1,0,0|1,0,0,1,0,0,0,0,0|0,0,0,0,0,0,0,0,0|];
right = [3,1,3,2,0,3,1,1,2];
bottom = [3,1,1,3,1,1,3,0,3];
